NAME          
ROWS
 N  OBJ
 L  c1
COLUMNS
    MARKER    'MARKER'                 'INTORG'
    x[1]      c1        247
    x[1]      OBJ       -269
    x[2]      c1        291
    x[2]      OBJ       -323
    x[3]      c1        380
    x[3]      OBJ       -281
    x[4]      c1        330
    x[4]      OBJ       -280
    x[5]      c1        607
    x[5]      OBJ       -665
    x[6]      c1        961
    x[6]      OBJ       -994
    x[7]      c1        966
    x[7]      OBJ       -949
    x[8]      c1        262
    x[8]      OBJ       -359
    x[9]      c1        945
    x[9]      OBJ       -867
    x[10]     c1        499
    x[10]     OBJ       -484
    x[11]     c1        815
    x[11]     OBJ       -880
    x[12]     c1        512
    x[12]     OBJ       -477
    x[13]     c1        620
    x[13]     OBJ       -681
    x[14]     c1        32
    x[14]     OBJ       -20
    x[15]     c1        339
    x[15]     OBJ       -360
    x[16]     c1        562
    x[16]     OBJ       -617
    x[17]     c1        340
    x[17]     OBJ       -345
    x[18]     c1        840
    x[18]     OBJ       -837
    x[19]     c1        -24
    x[19]     OBJ       -18
    x[20]     c1        904
    x[20]     OBJ       -833
    x[21]     c1        680
    x[21]     OBJ       -725
    x[22]     c1        55
    x[22]     OBJ       -151
    x[23]     c1        530
    x[23]     OBJ       -587
    x[24]     c1        197
    x[24]     OBJ       -212
    x[25]     c1        926
    x[25]     OBJ       -844
    x[26]     c1        760
    x[26]     OBJ       -719
    x[27]     c1        926
    x[27]     OBJ       -847
    x[28]     c1        1006
    x[28]     OBJ       -971
    x[29]     c1        699
    x[29]     OBJ       -719
    x[30]     c1        795
    x[30]     OBJ       -706
    x[31]     c1        546
    x[31]     OBJ       -535
    x[32]     c1        152
    x[32]     OBJ       -211
    x[33]     c1        39
    x[33]     OBJ       -98
    x[34]     c1        927
    x[34]     OBJ       -850
    x[35]     c1        844
    x[35]     OBJ       -839
    x[36]     c1        1069
    x[36]     OBJ       -969
    x[37]     c1        65
    x[37]     OBJ       -56
    x[38]     c1        670
    x[38]     OBJ       -685
    x[39]     c1        631
    x[39]     OBJ       -706
    x[40]     c1        611
    x[40]     OBJ       -628
RHS
    rhs       c1        11278
RANGES
BOUNDS
 BV bounds    x[1]
 BV bounds    x[2]
 BV bounds    x[3]
 BV bounds    x[4]
 BV bounds    x[5]
 BV bounds    x[6]
 BV bounds    x[7]
 BV bounds    x[8]
 BV bounds    x[9]
 BV bounds    x[10]
 BV bounds    x[11]
 BV bounds    x[12]
 BV bounds    x[13]
 BV bounds    x[14]
 BV bounds    x[15]
 BV bounds    x[16]
 BV bounds    x[17]
 BV bounds    x[18]
 BV bounds    x[19]
 BV bounds    x[20]
 BV bounds    x[21]
 BV bounds    x[22]
 BV bounds    x[23]
 BV bounds    x[24]
 BV bounds    x[25]
 BV bounds    x[26]
 BV bounds    x[27]
 BV bounds    x[28]
 BV bounds    x[29]
 BV bounds    x[30]
 BV bounds    x[31]
 BV bounds    x[32]
 BV bounds    x[33]
 BV bounds    x[34]
 BV bounds    x[35]
 BV bounds    x[36]
 BV bounds    x[37]
 BV bounds    x[38]
 BV bounds    x[39]
 BV bounds    x[40]
ENDATA
